1000 1000
1 1 1 0 2 1 2 2 0 0 1 0 1 0 0 2 1 1 1 0 0 2 2 2 0 2 0 2 0 0 0 1 1 1 0 1 1 1 1 2 0 0 1 2 0 2 0 0 2 1 2 1 1 0 0 1 0 0 0 0 2 1 0 2 2 1 1 1 2 1 1 0 1 2 2 2 2 1 0 2 1 2 1 1 0 1 1 1 0 1 1 2 1 2 1 1 0 1 1 2 0 1 2 0 2 2 0 1 0 1 2 0 1 0 2 2 1 1 1 2 0 1 2 2 0 2 0 1 1 1 2 1 0 1 1 1 0 1 1 0 1 0 0 2 1 1 2 2 2 2 0 2 1 0 0 1 2 1 2 1 0 2 2 0 0 1 0 0 0 2 0 2 2 1 1 2 2 2 0 1 1 0 2 1 0 0 0 0 2 2 1 0 0 1 1 0 2 0 1 0 2 2 0 1 2 1 2 1 2 2 2 1 1 1 0 0 1 0 0 0 0 2 0 0 0 1 1 2 1 2 1 1 1 1 0 2 1 2 1 2 1 0 1 2 2 0 1 1 0 0 1 1 1 0 0 1 1 1 0 2 1 0 0 1 2 2 0 2 1 0 0 2 0 2 0 2 2 1 1 2 1 2 1 0 0 0 1 1 1 1 2 2 2 2 0 0 0 1 0 2 1 0 0 2 1 2 2 1 1 0 2 1 0 0 2 2 0 1 0 0 2 2 1 0 2 0 0 0 0 2 0 2 1 1 0 0 1 0 0 1 0 2 2 0 0 0 1 2 0 1 0 1 2 0 1 0 1 2 2 2 1 0 1 2 1 2 2 1 2 0 2 2 2 0 1 2 2 1 1 0 1 1 1 1 2 0 2 0 0 0 0 1 0 2 1 2 0 1 0 2 1 0 1 1 1 0 0 0 2 0 1 1 1 1 0 0 1 0 0 1 1 0 1 2 0 1 2 1 2 0 0 1 2 0 2 2 1 2 0 0 2 0 0 2 2 2 0 1 2 0 0 0 1 2 0 1 0 0 2 1 0 2 2 2 1 1 1 1 2 2 2 0 1 0 0 0 0 2 1 2 0 1 0 1 1 0 1 0 1 0 1 0 1 2 1 0 1 2 0 1 0 0 1 0 2 1 1 0 0 2 0 2 0 0 0 0 1 1 2 0 2 1 2 0 0 2 2 1 0 1 1 0 1 2 0 2 0 0 1 2 0 1 0 0 0 2 0 1 1 0 0 2 0 1 0 2 1 2 2 0 0 1 0 2 0 2 2 1 2 2 1 2 2 0 0 1 0 1 1 0 0 2 2 2 1 0 2 2 1 1 0 0 1 2 0 0 2 2 0 2 0 1 0 0 2 2 2 2 2 0 2 0 2 2 2 0 1 1 1 0 1 1 1 1 0 0 1 0 1 2 1 2 1 2 2 0 1 1 0 2 0 0 1 1 2 2 2 0 2 0 1 2 0 0 1 2 0 2 1 2 1 2 0 1 1 1 2 2 1 1 1 0 0 1 2 2 1 0 2 2 2 2 1 0 1 0 2 0 0 1 0 1 2 0 0 1 2 0 0 1 2 2 1 2 2 2 0 0 2 0 0 1 0 2 2 1 1 0 2 0 2 2 2 0 0 2 2 1 0 0 2 2 2 1 0 1 2 1 2 1 0 0 1 2 1 1 1 0 2 2 2 2 0 0 0 1 0 0 1 0 0 1 2 1 2 0 2 2 0 0 2 2 1 2 0 1 0 1 0 0 1 1 0 1 1 0 1 0 1 0 0 2 0 2 1 1 1 1 0 0 2 0 2 1 2 2 1 2 2 2 1 2 1 0 1 2 1 2 2 0 0 0 1 1 1 2 0 2 1 1 2 1 2 1 2 1 1 1 1 2 0 1 2 0 1 0 1 2 2 1 1 0 2 1 0 0 0 0 0 1 0 1 2 1 1 1 1 2 0 0 0 0 0 2 2 0 0 1 1 2 1 0 1 1 0 1 2 2 0 2 2 2 2 2 2 0 2 1 2 2 0 0 1 2 1 1 2 0 0 2 2 1 2 2 0 2 0 1 1 1 1 1 1 2 1 2 2 0 1 2 2 1 0 1 2 2 0 1 0 2 2 0 2 0 1 2 0 1 2 2 2 1 2 0 1 0 1 2 0 1 2 0 1 2 0 2 0 0 0 1 0 2 1 1 0 2 0 1 2 1 1 2 1 2 1 2 1 2 0 1 1 2 1 1 1 1 0 0 1 1 1 2
2 3
3 4
4 5
5 6
6 7
7 8
8 9
9 10
10 11
11 12
12 13
13 14
14 15
15 16
16 17
17 18
18 19
19 20
20 21
21 22
22 23
23 24
24 25
25 26
26 27
27 28
28 29
29 30
30 31
31 32
32 33
33 34
34 35
35 36
36 37
37 38
38 39
39 40
40 41
41 42
42 43
43 44
44 45
45 46
46 47
47 48
48 49
49 50
50 51
51 52
52 53
53 54
54 55
55 56
56 57
57 58
58 59
59 60
60 61
61 62
62 63
63 64
64 65
65 66
66 67
67 68
68 69
69 70
70 71
71 72
72 73
73 74
74 75
75 76
76 77
77 78
78 79
79 80
80 81
81 82
82 83
83 84
84 85
85 86
86 87
87 88
88 89
89 90
90 91
91 92
92 93
93 94
94 95
95 96
96 97
97 98
98 99
99 100
100 101
101 102
102 103
103 104
104 105
105 106
106 107
107 108
108 109
109 110
110 111
111 112
112 113
113 114
114 115
115 116
116 117
117 118
118 119
119 120
120 121
121 122
122 123
123 124
124 125
125 126
126 127
127 128
128 129
129 130
130 131
131 132
132 133
133 134
134 135
135 136
136 137
137 138
138 139
139 140
140 141
141 142
142 143
143 144
144 145
145 146
146 147
147 148
148 149
149 150
150 151
151 152
152 153
153 154
154 155
155 156
156 157
157 158
158 159
159 160
160 161
161 162
162 163
163 164
164 165
165 166
166 167
167 168
168 169
169 170
170 171
171 172
172 173
173 174
174 175
175 176
176 177
177 178
178 179
179 180
180 181
181 182
182 183
183 184
184 185
185 186
186 187
187 188
188 189
189 190
190 191
191 192
192 193
193 194
194 195
195 196
196 197
197 198
198 199
199 200
200 201
201 202
202 203
203 204
204 205
205 206
206 207
207 208
208 209
209 210
210 211
211 212
212 213
213 214
214 215
215 216
216 217
217 218
218 219
219 220
220 221
221 222
222 223
223 224
224 225
225 226
226 227
227 228
228 229
229 230
230 231
231 232
232 233
233 234
234 235
235 236
236 237
237 238
238 239
239 240
240 241
241 242
242 243
243 244
244 245
245 246
246 247
247 248
248 249
249 250
250 251
251 252
252 253
253 254
254 255
255 256
256 257
257 258
258 259
259 260
260 261
261 262
262 263
263 264
264 265
265 266
266 267
267 268
268 269
269 270
270 271
271 272
272 273
273 274
274 275
275 276
276 277
277 278
278 279
279 280
280 281
281 282
282 283
283 284
284 285
285 286
286 287
287 288
288 289
289 290
290 291
291 292
292 293
293 294
294 295
295 296
296 297
297 298
298 299
299 300
300 301
301 302
302 303
303 304
304 305
305 306
306 307
307 308
308 309
309 310
310 311
311 312
312 313
313 314
314 315
315 316
316 317
317 318
318 319
319 320
320 321
321 322
322 323
323 324
324 325
325 326
326 327
327 328
328 329
329 330
330 331
331 332
332 333
333 334
334 335
335 336
336 337
337 338
338 339
339 340
340 341
341 342
342 343
343 344
344 345
345 346
346 347
347 348
348 349
349 350
350 351
351 352
352 353
353 354
354 355
355 356
356 357
357 358
358 359
359 360
360 361
361 362
362 363
363 364
364 365
365 366
366 367
367 368
368 369
369 370
370 371
371 372
372 373
373 374
374 375
375 376
376 377
377 378
378 379
379 380
380 381
381 382
382 383
383 384
384 385
385 386
386 387
387 388
388 389
389 390
390 391
391 392
392 393
393 394
394 395
395 396
396 397
397 398
398 399
399 400
400 401
401 402
402 403
403 404
404 405
405 406
406 407
407 408
408 409
409 410
410 411
411 412
412 413
413 414
414 415
415 416
416 417
417 418
418 419
419 420
420 421
421 422
422 423
423 424
424 425
425 426
426 427
427 428
428 429
429 430
430 431
431 432
432 433
433 434
434 435
435 436
436 437
437 438
438 439
439 440
440 441
441 442
442 443
443 444
444 445
445 446
446 447
447 448
448 449
449 450
450 451
451 452
452 453
453 454
454 455
455 456
456 457
457 458
458 459
459 460
460 461
461 462
462 463
463 464
464 465
465 466
466 467
467 468
468 469
469 470
470 471
471 472
472 473
473 474
474 475
475 476
476 477
477 478
478 479
479 480
480 481
481 482
482 483
483 484
484 485
485 486
486 487
487 488
488 489
489 490
490 491
491 492
492 493
493 494
494 495
495 496
496 497
497 498
498 499
499 500
500 501
501 502
502 503
503 504
504 505
505 506
506 507
507 508
508 509
509 510
510 511
511 512
512 513
513 514
514 515
515 516
516 517
517 518
518 519
519 520
520 521
521 522
522 523
523 524
524 525
525 526
526 527
527 528
528 529
529 530
530 531
531 532
532 533
533 534
534 535
535 536
536 537
537 538
538 539
539 540
540 541
541 542
542 543
543 544
544 545
545 546
546 547
547 548
548 549
549 550
550 551
551 552
552 553
553 554
554 555
555 556
556 557
557 558
558 559
559 560
560 561
561 562
562 563
563 564
564 565
565 566
566 567
567 568
568 569
569 570
570 571
571 572
572 573
573 574
574 575
575 576
576 577
577 578
578 579
579 580
580 581
581 582
582 583
583 584
584 585
585 586
586 587
587 588
588 589
589 590
590 591
591 592
592 593
593 594
594 595
595 596
596 597
597 598
598 599
599 600
600 601
601 602
602 603
603 604
604 605
605 606
606 607
607 608
608 609
609 610
610 611
611 612
612 613
613 614
614 615
615 616
616 617
617 618
618 619
619 620
620 621
621 622
622 623
623 624
624 625
625 626
626 627
627 628
628 629
629 630
630 631
631 632
632 633
633 634
634 635
635 636
636 637
637 638
638 639
639 640
640 641
641 642
642 643
643 644
644 645
645 646
646 647
647 648
648 649
649 650
650 651
651 652
652 653
653 654
654 655
655 656
656 657
657 658
658 659
659 660
660 661
661 662
662 663
663 664
664 665
665 666
666 667
667 668
668 669
669 670
670 671
671 672
672 673
673 674
674 675
675 676
676 677
677 678
678 679
679 680
680 681
681 682
682 683
683 684
684 685
685 686
686 687
687 688
688 689
689 690
690 691
691 692
692 693
693 694
694 695
695 696
696 697
697 698
698 699
699 700
700 701
701 702
702 703
703 704
704 705
705 706
706 707
707 708
708 709
709 710
710 711
711 712
712 713
713 714
714 715
715 716
716 717
717 718
718 719
719 720
720 721
721 722
722 723
723 724
724 725
725 726
726 727
727 728
728 729
729 730
730 731
731 732
732 733
733 734
734 735
735 736
736 737
737 738
738 739
739 740
740 741
741 742
742 743
743 744
744 745
745 746
746 747
747 748
748 749
749 750
750 751
751 752
752 753
753 754
754 755
755 756
756 757
757 758
758 759
759 760
760 761
761 762
762 763
763 764
764 765
765 766
766 767
767 768
768 769
769 770
770 771
771 772
772 773
773 774
774 775
775 776
776 777
777 778
778 779
779 780
780 781
781 782
782 783
783 784
784 785
785 786
786 787
787 788
788 789
789 790
790 791
791 792
792 793
793 794
794 795
795 796
796 797
797 798
798 799
799 800
800 801
801 802
802 803
803 804
804 805
805 806
806 807
807 808
808 809
809 810
810 811
811 812
812 813
813 814
814 815
815 816
816 817
817 818
818 819
819 820
820 821
821 822
822 823
823 824
824 825
825 826
826 827
827 828
828 829
829 830
830 831
831 832
832 833
833 834
834 835
835 836
836 837
837 838
838 839
839 840
840 841
841 842
842 843
843 844
844 845
845 846
846 847
847 848
848 849
849 850
850 851
851 852
852 853
853 854
854 855
855 856
856 857
857 858
858 859
859 860
860 861
861 862
862 863
863 864
864 865
865 866
866 867
867 868
868 869
869 870
870 871
871 872
872 873
873 874
874 875
875 876
876 877
877 878
878 879
879 880
880 881
881 882
882 883
883 884
884 885
885 886
886 887
887 888
888 889
889 890
890 891
891 892
892 893
893 894
894 895
895 896
896 897
897 898
898 899
899 900
900 901
901 902
902 903
903 904
904 905
905 906
906 907
907 908
908 909
909 910
910 911
911 912
912 913
913 914
914 915
915 916
916 917
917 918
918 919
919 920
920 921
921 922
922 923
923 924
924 925
925 926
926 927
927 928
928 929
929 930
930 931
931 932
932 933
933 934
934 935
935 936
936 937
937 938
938 939
939 940
940 941
941 942
942 943
943 944
944 945
945 946
946 947
947 948
948 949
949 950
950 951
951 952
952 953
953 954
954 955
955 956
956 957
957 958
958 959
959 960
960 961
961 962
962 963
963 964
964 965
965 966
966 967
967 968
968 969
969 970
970 971
971 972
972 973
973 974
974 975
975 976
976 977
977 978
978 979
979 980
980 981
981 982
982 983
983 984
984 985
985 986
986 987
987 988
988 989
989 990
990 991
991 992
992 993
993 994
994 995
995 996
996 997
997 998
998 999
999 1000
75 670 3
347 569 0
54 186 1
828 956 2
196 685 1
213 263 2
14 106 1
73 283 4
774 939 4
409 635 1
573 896 2
204 759 3
137 552 0
766 955 3
174 585 4
363 547 1
39 354 3
517 901 2
182 543 2
417 922 4
485 873 1
280 963 4
530 679 3
167 222 3
401 741 4
453 692 1
175 854 1
184 659 4
28 78 1
36 753 2
12 27 0
295 898 0
332 362 3
787 819 0
639 646 4
336 997 4
490 977 2
166 752 2
262 264 3
504 983 4
120 164 4
108 693 3
43 991 2
764 869 2
61 697 4
85 326 2
136 686 3
655 892 1
387 796 2
137 554 4
4 778 2
744 986 0
601 715 4
652 808 1
764 779 0
559 614 0
691 921 1
280 726 2
346 785 4
471 746 0
171 963 4
56 316 3
345 545 0
455 594 2
711 978 1
327 359 1
143 238 0
34 694 0
585 809 2
154 280 4
460 723 0
428 932 3
152 287 2
233 372 4
350 645 0
387 796 2
169 659 3
698 814 0
159 805 0
531 923 2
135 363 4
724 903 4
222 417 2
72 393 0
420 454 4
186 293 3
37 928 3
733 827 4
245 421 4
297 945 1
59 952 0
767 914 0
66 951 0
460 916 3
243 420 4
25 500 0
606 909 0
230 583 2
202 958 4
606 775 2
507 845 0
285 985 3
276 365 3
140 176 2
662 956 3
320 683 0
287 490 0
362 627 4
130 559 2
248 811 1
666 976 3
431 772 3
712 804 4
319 354 2
375 873 2
190 231 1
265 889 0
279 830 0
582 889 4
214 936 1
216 438 4
321 882 1
402 906 4
585 915 3
36 408 1
330 865 2
60 898 0
793 943 2
645 749 0
357 750 3
818 968 0
413 594 0
884 978 3
86 679 1
723 929 2
23 951 0
405 916 4
57 428 3
562 861 0
171 584 2
832 874 1
324 990 0
171 195 2
181 800 4
358 930 1
58 823 4
116 403 2
293 757 4
457 959 3
446 886 3
429 935 0
435 887 4
417 894 1
167 167 3
455 916 4
844 981 4
68 663 0
224 542 3
95 929 2
159 197 0
567 738 1
180 643 3
95 797 3
138 713 0
355 572 4
51 351 0
731 917 3
415 482 1
168 443 4
133 788 0
88 94 2
63 869 4
753 875 1
545 898 0
4 780 0
48 353 3
645 677 0
569 732 0
745 883 0
83 855 0
579 834 4
541 866 4
67 102 0
360 842 4
684 954 3
78 651 1
166 393 4
692 798 3
242 289 0
374 416 0
419 895 1
93 298 1
69 484 0
183 211 1
45 311 4
1 440 0
261 366 2
680 753 0
77 895 2
79 944 1
674 886 3
135 382 0
501 816 1
133 329 2
108 169 4
633 992 3
136 458 4
241 853 2
32 899 4
53 703 1
357 879 3
350 856 4
681 738 0
204 637 1
169 999 0
71 645 4
1 875 3
381 903 4
633 966 3
847 908 0
617 794 2
635 647 4
219 767 1
482 564 4
214 363 4
173 249 0
552 608 1
679 953 4
191 964 4
298 672 2
33 324 2
884 944 3
122 930 4
254 993 0
175 781 4
192 538 1
257 845 0
435 453 4
776 940 4
656 762 0
669 957 4
250 486 2
293 563 2
242 899 1
62 393 1
278 418 2
419 987 4
777 812 4
349 761 3
789 825 4
292 504 0
10 529 2
320 328 4
77 518 4
27 62 1
659 696 3
546 609 2
687 737 3
694 958 3
402 791 4
137 992 0
295 782 1
702 799 0
3 952 4
121 811 0
202 804 0
611 759 4
175 521 3
282 610 3
336 673 0
251 681 0
545 801 1
223 680 2
820 880 1
227 893 4
250 654 2
931 942 4
550 741 2
257 830 4
430 705 3
817 955 3
43 168 3
295 939 0
132 500 4
702 915 4
438 659 2
649 932 4
374 844 3
511 619 3
44 119 4
823 860 2
64 741 3
243 563 4
768 986 4
456 800 0
895 929 2
301 677 2
512 514 3
331 641 2
161 965 2
588 782 3
395 419 2
523 570 1
321 527 0
605 791 2
765 777 3
40 429 4
597 868 0
457 646 3
149 349 1
492 880 4
380 957 0
508 638 0
293 474 1
427 736 4
503 810 3
210 691 3
91 467 2
119 748 4
4 68 0
589 896 3
143 413 1
96 547 1
444 982 4
129 952 0
482 943 3
307 643 0
752 882 2
284 570 4
573 611 0
2 996 0
236 481 1
229 519 4
649 877 0
429 536 3
401 537 2
938 963 0
124 290 3
319 811 1
665 916 3
154 281 4
615 836 3
538 625 4
112 784 1
69 344 2
253 888 4
8 298 2
404 974 2
33 322 0
521 531 2
517 953 4
594 958 2
260 916 0
725 890 0
121 164 4
144 414 2
456 650 0
78 348 2
2 777 1
402 771 3
699 972 1
101 582 0
394 621 2
381 568 2
359 727 0
445 618 3
77 331 3
536 936 4
401 989 4
232 237 4
716 754 4
327 406 2
91 276 0
170 178 4
340 918 1
148 567 3
35 526 4
871 905 3
522 611 4
790 791 1
571 913 1
608 644 4
771 814 2
290 896 2
225 734 1
607 912 4
422 446 4
102 849 3
815 994 3
60 122 3
527 724 1
436 465 1
274 919 2
216 293 1
485 684 0
59 505 0
645 807 2
352 616 3
261 961 2
104 528 4
165 550 3
459 767 3
92 217 4
447 938 3
84 125 2
538 903 2
472 515 4
189 376 1
272 569 4
313 641 0
381 506 3
46 913 1
763 775 3
124 921 4
406 836 2
12 505 4
403 419 1
737 921 2
722 956 0
114 247 0
165 934 0
199 274 2
105 636 2
79 938 3
771 950 2
424 783 3
174 416 2
786 868 4
141 624 3
122 792 0
63 152 3
348 988 3
315 493 2
569 764 0
403 909 3
218 674 3
668 999 0
131 576 2
716 866 0
495 560 3
608 730 0
48 328 3
49 262 3
217 669 2
805 837 3
235 739 2
626 642 0
172 537 4
152 648 4
243 307 0
630 988 3
635 754 0
330 654 2
381 616 4
308 567 1
424 649 4
59 509 4
577 601 3
40 391 3
75 836 0
202 525 3
182 793 0
417 748 2
148 529 1
375 577 1
753 899 1
481 944 0
435 638 3
541 618 1
428 948 2
679 723 0
680 815 0
494 918 2
640 896 1
403 873 1
573 924 2
516 798 3
94 157 2
315 784 2
94 951 4
528 550 0
712 772 2
335 673 2
427 993 2
174 192 0
818 949 2
669 736 4
154 388 3
531 970 1
254 267 3
266 734 1
724 944 4
39 84 3
130 495 2
870 871 4
40 575 4
519 959 2
215 921 4
598 741 4
116 324 2
414 612 2
458 861 1
109 282 2
58 851 3
333 657 0
138 775 4
249 533 3
148 875 3
481 916 3
545 889 0
173 265 2
461 695 3
486 755 2
575 911 3
383 752 1
725 847 2
484 827 1
311 966 3
614 665 1
502 775 2
177 572 4
15 427 4
318 861 3
133 544 1
268 861 1
200 283 3
49 122 0
11 542 4
198 409 4
278 880 4
651 717 0
162 971 2
667 706 2
711 816 2
106 657 3
180 910 4
287 675 4
123 474 4
203 441 2
121 767 3
792 886 0
167 557 2
14 49 4
705 897 3
625 838 3
622 650 1
136 373 0
148 778 4
945 948 0
259 336 2
603 756 4
30 355 3
713 905 2
747 869 4
139 243 3
600 666 1
407 845 4
41 322 2
861 991 0
241 334 1
478 622 1
278 613 0
141 986 4
512 616 2
67 857 2
587 865 1
5 876 2
110 641 1
178 480 3
496 783 1
150 968 2
133 650 4
429 701 2
549 826 2
481 538 2
313 880 4
449 549 4
287 900 0
226 712 3
695 949 3
369 856 2
568 586 1
242 861 0
194 959 1
294 583 4
145 932 1
269 602 1
977 993 4
856 908 1
438 874 0
523 697 1
475 908 2
75 549 1
557 624 0
783 916 0
321 685 2
900 981 4
193 811 4
643 737 4
123 478 2
589 633 1
593 940 4
913 993 0
120 767 1
224 958 3
140 243 4
718 940 4
46 302 2
916 985 1
393 691 2
613 928 2
876 930 3
150 839 2
191 241 4
137 915 0
427 548 4
29 994 4
651 700 2
246 765 1
815 989 1
668 910 1
501 631 3
228 619 1
83 446 1
569 750 3
83 683 1
138 707 1
531 626 4
380 791 2
491 975 1
354 896 2
200 221 1
52 665 4
563 639 3
302 436 2
657 673 3
593 728 4
283 311 2
358 687 2
117 308 0
124 784 3
771 836 4
338 971 0
348 716 3
188 471 4
76 538 4
340 691 3
92 670 2
535 726 3
512 943 1
501 1000 4
105 802 1
151 563 2
139 822 3
347 809 2
200 329 3
525 571 0
424 598 2
165 753 0
240 438 3
171 869 3
104 995 2
515 907 0
64 66 1
109 746 1
570 575 4
654 869 4
507 941 0
304 595 2
88 656 3
422 546 0
67 419 0
408 537 1
883 904 2
115 762 2
461 836 0
614 731 1
229 365 1
98 259 1
161 357 4
4 780 4
188 253 0
444 752 0
176 496 3
195 979 0
243 988 1
647 973 3
808 814 2
265 778 0
489 800 3
554 872 2
416 650 3
150 318 3
715 827 1
430 823 0
266 940 2
352 454 1
827 945 0
118 316 1
236 987 3
487 727 2
801 920 0
429 482 1
219 771 2
119 741 4
436 870 3
189 925 1
337 720 0
26 168 2
54 428 0
451 966 3
600 612 3
701 951 2
208 857 1
117 506 2
524 659 4
679 949 0
98 787 2
24 89 3
683 872 3
252 907 4
720 729 3
212 853 4
298 995 4
455 558 4
153 670 1
565 975 2
9 231 2
357 568 3
277 743 0
704 804 1
450 507 3
216 699 3
748 951 4
81 961 3
331 388 4
862 929 4
813 813 1
17 274 4
543 609 1
657 999 3
210 727 1
3 56 0
496 607 1
330 633 0
175 933 0
368 371 0
220 920 2
576 581 4
144 838 1
583 634 1
312 341 2
13 889 1
379 754 1
3 720 2
225 859 1
403 692 4
330 514 1
650 901 4
280 327 0
13 989 4
811 829 2
372 403 0
457 856 2
657 945 2
64 910 0
464 866 4
560 863 3
764 963 1
19 671 2
27 154 3
706 812 0
34 313 4
492 893 0
200 615 0
16 323 4
594 788 4
290 315 3
359 928 2
674 790 1
145 516 2
8 687 2
162 873 2
24 59 3
15 812 3
628 860 3
158 595 4
375 790 1
610 671 0
704 707 4
508 613 1
164 769 2
269 945 2
670 742 3
758 894 2
294 327 1
850 902 3
73 491 0
465 908 0
184 208 4
387 939 2
730 975 4
389 985 1
980 996 0
713 989 0
810 845 3
18 51 3
306 366 4
465 608 3
474 687 2
634 720 3
305 782 1
145 178 2
82 936 4
164 615 4
52 408 3
49 673 2
443 765 3
583 776 0
226 614 2
604 621 3
755 831 3
471 998 4
304 779 1
115 511 3
420 489 4
191 685 4
318 726 1
207 241 3
291 782 0
83 787 4
812 815 3
714 989 2
655 993 4
434 504 0
748 975 4
166 906 0
401 970 3
430 613 4
282 859 1
375 919 1
113 945 3
128 800 1
344 978 2
229 449 2
173 871 2
436 708 1
267 743 0
382 420 2
294 871 3
289 384 4
141 625 2
532 964 2
109 146 4
388 531 3
207 951 2
213 632 0
349 427 4
351 505 3
353 504 2
50 959 2
298 976 3
226 959 0
45 312 0
167 945 0
359 923 2
592 677 1
427 439 2
382 854 3
88 863 0
420 492 3
563 652 1
383 450 2
167 232 2
371 778 3
36 282 1
51 689 1
604 970 0
371 602 0
634 814 4
529 934 2
220 856 0
643 778 2
266 627 3
471 865 2
474 887 4
161 620 4
688 949 0
230 417 0
107 552 4
154 922 4
764 904 3
823 846 2
523 902 0
318 513 4
229 759 4
101 922 4
316 356 3
171 511 1
70 677 2
312 983 2
497 961 3
191 439 2
281 601 1
78 922 2
529 814 3
164 578 3
117 703 3
416 520 0
524 869 1
572 993 4
122 485 2
898 943 1
505 896 2
313 760 0
767 801 4
542 747 4
319 609 0
47 426 1
297 310 4
725 808 4
87 145 0
10 952 4
180 709 3
19 374 3
1 547 3
762 929 4
207 344 1
675 930 2
769 980 3
571 762 1
422 921 0
45 53 4
797 929 2
595 707 4
137 932 0
241 872 0
432 551 2
183 289 3
672 893 4
454 567 0
111 222 0
85 263 1
150 809 1
212 736 4
545 574 2
682 947 0
414 532 2
655 818 1
272 884 1
25 637 2
407 710 1
130 345 1
160 615 2
13 47 3
4 103 0
85 181 1
334 367 1
407 948 3
310 352 1
521 760 2
505 789 1
100 603 4
148 313 3
837 970 2
111 770 2
240 808 0
137 721 3
154 893 4
33 942 0
360 415 0
202 549 2
66 104 0
518 860 1
286 751 4
748 762 0
43 621 2
735 825 2
339 601 2
356 851 3
282 742 2
413 770 2
7 320 0
80 905 2
203 796 4
160 294 0
149 402 1
654 890 0
236 307 0
94 182 0
33 338 1
641 814 2
166 396 3
256 827 4
214 512 0
317 819 1
479 769 3
68 554 0
475 754 1
431 818 0
